************************************************************************
file with basedata            : n/a
initial value random generator: n/a
************************************************************************
projects                      :  1
jobs (incl. supersource/sink ):  32
horizon                       :  134
RESOURCES
  - renewable                 :  4   R
  - nonrenewable              :  0   N
  - doubly constrained        :  0   D
************************************************************************
PROJECT INFORMATION:
pronr.  #jobs rel.date duedate tardcost  MPM-Time
    1     30      0       51       22       51
************************************************************************
PRECEDENCE RELATIONS:
jobnr.    #modes  #successors   successors
   1        1          3           2   3   4
   2        1          1          13
   3        1          3           8  21  27
   4        1          2           5   9
   5        1          3           6  21  26
   6        1          3           7  10  15
   7        1          2          13  16
   8        1          1           9
   9        1          2          14  22
  10        1          2          11  13
  11        1          2          12  17
  12        1          3          14  18  27
  13        1          2          19  22
  14        1          3          16  20  24
  15        1          2          22  23
  16        1          1          25
  17        1          3          18  19  23
  18        1          2          20  24
  19        1          1          27
  20        1          1          25
  21        1          1          30
  22        1          2          28  29
  23        1          2          25  30
  24        1          2          30  31
  25        1          1          31
  26        1          2          28  29
  27        1          2          28  29
  28        1          1          31
  29        1          1          32
  30        1          1          32
  31        1          1          32
  32        1          0        
************************************************************************
REQUESTS/DURATIONS:
jobnr. mode duration  R 1  R 2  R 3  R 4
------------------------------------------------------------------------
  1      1     0    
  2      1     4       6   6   6   6
                       9   9   9   9
                       9   9   9   9
                       5   5   5   5
  3      1     6       5   5   5   3   5   5
                       6   6   6   3   6   6
                       2   2   2   1   2   2
                       3   3   3   2   3   3
  4      1     1       2
                       3
                       3
                       2
  5      1     9       1   2   2   2   1   2   2   2   2
                       5  10  10  10   5  10  10  10  10
                       2   4   4   4   2   4   4   4   4
                       3   5   5   5   3   5   5   5   5
  6      1     1       4
                       9
                       4
                       8
  7      1     9      10  10  10  10   5   5  10  10  10
                       9   9   9   9   5   5   9   9   9
                       3   3   3   3   2   2   3   3   3
                       3   3   3   3   2   2   3   3   3
  8      1     2       2   2
                       4   4
                       4   4
                       5   5
  9      1     4       5   5   5   5
                       4   4   4   4
                       4   4   4   4
                       6   6   6   6
 10      1     2       8   8
                       7   7
                      10  10
                       7   7
 11      1     2       9   9
                       7   7
                       1   1
                       9   9
 12      1     4       4   4   4   4
                       2   2   2   2
                      10  10  10  10
                       1   1   1   1
 13      1     7       1   1   1   1   1   1   1
                       8   8   8   8   8   8   8
                       6   6   6   6   6   6   6
                       5   5   5   5   5   5   5
 14      1     9       4   8   8   8   8   8   8   8   4
                       5   9   9   9   9   9   9   9   5
                       2   4   4   4   4   4   4   4   2
                       4   7   7   7   7   7   7   7   4
 15      1     2       7   4
                       9   5
                       4   2
                       6   3
 16      1     2       5   5
                       6   6
                       5   5
                       8   8
 17      1     3       7   7   7
                       3   3   3
                       3   3   3
                       8   8   8
 18      1     7       1   1   1   1   1   1   1
                      10  10  10  10  10  10  10
                       2   2   2   2   2   2   2
                       9   9   9   9   9   9   9
 19      1     3       4   4   4
                       7   7   7
                       6   6   6
                       3   3   3
 20      1     8       5   9   9   9   9   9   9   9
                       2   4   4   4   4   4   4   4
                       1   2   2   2   2   2   2   2
                       5  10  10  10  10  10  10  10
 21      1     7       3   3   2   3   2   3   3
                       4   4   2   4   2   4   4
                       2   2   1   2   1   2   2
                       7   7   4   7   4   7   7
 22      1     5       9   5   9   9   9
                       3   2   3   3   3
                       9   5   9   9   9
                       3   2   3   3   3
 23      1     2       7   7
                       3   3
                       7   7
                       2   2
 24      1     4       5   5   5   5
                       2   2   2   2
                       8   8   8   8
                       3   3   3   3
 25      1     9       5   5   5   5   5   5   5   5   5
                       8   8   8   8   8   8   8   8   8
                       9   9   9   9   9   9   9   9   9
                       3   3   3   3   3   3   3   3   3
 26      1     7       5   5   5   5   5   5   5
                       5   5   5   5   5   5   5
                      10  10  10  10  10  10  10
                       1   1   1   1   1   1   1
 27      1     2       5   9
                       3   5
                       5  10
                       1   1
 28      1     2       9   9
                       5   5
                       5   5
                       4   4
 29      1     2       6   6
                       6   6
                       9   9
                       7   7
 30      1     3       4   4   4
                       5   5   5
                       7   7   7
                       4   4   4
 31      1     6       1   1   1   1   1   1
                       7   7   7   7   7   7
                       9   9   9   9   9   9
                      10  10  10  10  10  10
 32      1     0    
************************************************************************
RESOURCEAVAILABILITIES:
  R 1  R 2  R 3  R 4

  16  16  16  16  16  16  16  16   8  16  16   8  16  16  16  16  16  16  16  16  16   8  16   8  16  16  16   8  16  16   8  16   8  16  16  16  16  16  16  16  16  16   8  16  16   8  16  16  16  16  16  16   8  16  16  16  16  16  16  16   8  16  16  16   8  16  16   8  16  16  16  16  16  16  16  16  16  16  16  16  16  16   8  16  16  16  16  16  16  16  16  16  16  16  16  16  16  16  16  16  16  16  16  16  16  16  16  16  16  16  16  16  16  16  16  16  16  16   8  16  16  16  16  16  16   8  16  16  16   8  16  16   8  16

  16  16  16  16  16  16  16  16   8  16  16   8  16  16  16  16  16  16  16  16  16   8  16   8  16  16  16   8  16  16   8  16   8  16  16  16  16  16  16  16  16  16   8  16  16   8  16  16  16  16  16  16   8  16  16  16  16  16  16  16   8  16  16  16   8  16  16   8  16  16  16  16  16  16  16  16  16  16  16  16  16  16   8  16  16  16  16  16  16  16  16  16  16  16  16  16  16  16  16  16  16  16  16  16  16  16  16  16  16  16  16  16  16  16  16  16  16  16   8  16  16  16  16  16  16   8  16  16  16   8  16  16   8  16

  15  15  15  15  15  15  15  15   8  15  15   8  15  15  15  15  15  15  15  15  15   8  15   8  15  15  15   8  15  15   8  15   8  15  15  15  15  15  15  15  15  15   8  15  15   8  15  15  15  15  15  15   8  15  15  15  15  15  15  15   8  15  15  15   8  15  15   8  15  15  15  15  15  15  15  15  15  15  15  15  15  15   8  15  15  15  15  15  15  15  15  15  15  15  15  15  15  15  15  15  15  15  15  15  15  15  15  15  15  15  15  15  15  15  15  15  15  15   8  15  15  15  15  15  15   8  15  15  15   8  15  15   8  15

  14  14  14  14  14  14  14  14   7  14  14   7  14  14  14  14  14  14  14  14  14   7  14   7  14  14  14   7  14  14   7  14   7  14  14  14  14  14  14  14  14  14   7  14  14   7  14  14  14  14  14  14   7  14  14  14  14  14  14  14   7  14  14  14   7  14  14   7  14  14  14  14  14  14  14  14  14  14  14  14  14  14   7  14  14  14  14  14  14  14  14  14  14  14  14  14  14  14  14  14  14  14  14  14  14  14  14  14  14  14  14  14  14  14  14  14  14  14   7  14  14  14  14  14  14   7  14  14  14   7  14  14   7  14

************************************************************************
